#######################
Slurm job id: 17497813_308
Running on machine: p70
Running cmd: /nfs/shared/static-builds/gurobi1202 SOFTMEMLIMIT=125 MIPFocus=3 Presolve=1 TimeLimit=300 seed=7 /nfs/models/miplib2010/k16x240.mps.bz2
#######################
Set parameter TimeLimit to value 300
Set parameter SoftMemLimit to value 125
Set parameter MIPFocus to value 3
Set parameter LogFile to value 1202-MIPFocus3-Presolve1-TimeLimit300-k16x240-7.log
Set parameter Presolve to value 1
Set parameter Seed to value 7
Using license file /opt/gurobi/gurobi.lic

Gurobi Optimizer version 12.0.2 build v12.0.2rc0 (linux64 - "Ubuntu 22.04.4 LTS")
Copyright (c) 2025, Gurobi Optimization, LLC

Read MPS format model from file /nfs/models/miplib2010/k16x240.mps.bz2
Reading time = 0.00 seconds
k16x240: 256 rows, 480 columns, 960 nonzeros

Using Gurobi shared library /nfs/shared/static-builds/gurobi1202

CPU model: Intel(R) Xeon(R) E-2388G CPU @ 3.20GHz, instruction set [SSE2|AVX|AVX2|AVX512]
Thread count: 8 physical cores, 16 logical processors, using up to 16 threads

Non-default parameters:
TimeLimit  300
SoftMemLimit  125
MIPFocus  3
Presolve  1
Seed  7

Optimize a model with 256 rows, 480 columns and 960 nonzeros
Model fingerprint: 0x4e80885f
Variable types: 240 continuous, 240 integer (240 binary)
Coefficient statistics:
  Matrix range     [1e+00, 1e+03]
  Objective range  [1e+00, 1e+03]
  Bounds range     [1e+00, 1e+03]
  RHS range        [4e+00, 4e+02]
Found heuristic solution: objective 24303.000000
Presolve time: 0.00s
Presolved: 256 rows, 480 columns, 960 nonzeros
Variable types: 240 continuous, 240 integer (240 binary)

Root relaxation: objective 2.769838e+03, 51 iterations, 0.00 seconds (0.00 work units)

    Nodes    |    Current Node    |     Objective Bounds      |     Work
 Expl Unexpl |  Obj  Depth IntInf | Incumbent    BestBd   Gap | It/Node Time

     0     0 2769.83800    0   14 24303.0000 2769.83800  88.6%     -    0s
H    0     0                    11359.000000 2769.83800  75.6%     -    0s
H    0     0                    11342.000000 2769.83800  75.6%     -    0s
H    0     0                    11195.000000 2769.83800  75.3%     -    0s
H    0     0                    11088.000000 2769.83800  75.0%     -    0s
H    0     0                    11074.000000 2769.83800  75.0%     -    0s
H    0     0                    10916.000000 8116.87580  25.6%     -    0s
     0     0 8116.87580    0   26 10916.0000 8116.87580  25.6%     -    0s
H    0     0                    10838.000000 8182.85928  24.5%     -    0s
H    0     0                    10836.000000 8182.85928  24.5%     -    0s
H    0     0                    10826.000000 8182.85928  24.4%     -    0s
H    0     0                    10806.000000 8182.85928  24.3%     -    0s
H    0     0                    10748.000000 8738.72045  18.7%     -    0s
     0     0 8741.28533    0   24 10748.0000 8741.28533  18.7%     -    0s
     0     0 9051.08366    0   31 10748.0000 9051.08366  15.8%     -    0s
     0     0 9051.23269    0   35 10748.0000 9051.23269  15.8%     -    0s
     0     0 9051.23269    0   38 10748.0000 9051.23269  15.8%     -    0s
     0     0 9051.23269    0   41 10748.0000 9051.23269  15.8%     -    0s
     0     0 9187.99600    0   30 10748.0000 9187.99600  14.5%     -    0s
     0     0 9273.41860    0   38 10748.0000 9273.41860  13.7%     -    0s
     0     0 9273.41860    0   38 10748.0000 9273.41860  13.7%     -    0s
     0     2 9273.41860    0   38 10748.0000 9273.41860  13.7%     -    0s
H   63    91                    10681.000000 9291.39659  13.0%  51.1    0s
H  102   123                    10674.000000 9402.79820  11.9%  52.8    0s
  4962  3185     cutoff   22      10674.0000 10324.4060  3.28%  90.6    5s

Cutting planes:
  Lift-and-project: 7
  Implied bound: 8
  Dual implied bound: 3
  MIR: 145
  Mixing: 1
  Flow cover: 506
  Flow path: 36
  Zero half: 21
  Network: 23
  Relax-and-lift: 3

Explored 28632 nodes (1247406 simplex iterations) in 9.29 seconds (12.98 work units)
Thread count was 16 (of 16 available processors)

Solution count 10: 10674 10681 10748 ... 11088

Optimal solution found (tolerance 1.00e-04)
Best objective 1.067400000000e+04, best bound 1.067300000000e+04, gap 0.0094%
